$ nonogram instance, generated by: nonogen 10 5 0.42 0.92 0.2 2115157488
$ #..#.
$ #.#..
$ #.#..
$ ..#..
$ .#.#.
$ #..#.
$ #####
$ ..#..
$ .....
$ ###.#
letting m be 10
letting n be 5
letting rowRules be [
sequence(1,1),
sequence(1,1),
sequence(1,1),
sequence(1),
sequence(1,1),
sequence(1,1),
sequence(5),
sequence(1),
sequence(),
sequence(3,1)]
letting colRules be [
sequence(3,2,1),
sequence(1,1,1),
sequence(3,2,1),
sequence(1,3),
sequence(1,1)]
letting r be 3
